NAME: GRASP_54_7
TYPE: TSP
COMMENT: line_54_7
DIMENSION: 54
EDGE_WEIGHT_TYPE: EUC_2D
NODE_COORD_SECTION
1 4333 2814
2 2726 1189
3 4240 3111
4 2969 2027
5 4442 707
6 1443 1161
7 1262 987
8 2708 1811
9 3986 3817
10 2277 3185
11 2398 2750
12 2339 2151
13 1423 1929
14 3294 3222
15 3072 2039
16 3416 4600
17 970 1591
18 1676 861
19 1320 296
20 1986 3690
21 317 1927
22 311 77
23 2929 3165
24 1184 1909
25 1545 68
26 2103 4517
27 2543 1098
28 444 906
29 3254 4235
30 3936 3440
31 3768 178
32 4726 1896
33 3814 3831
34 4060 1891
35 323 2215
36 4134 3727
37 1363 948
38 1060 2980
39 1512 2743
40 399 2619
41 584 3122
42 2489 626
43 676 763
44 4143 427
45 1629 694
46 3631 1952
47 1057 104
48 4971 531
49 4252 3313
50 2517 4049
51 1388 2204
52 3691 3729
53 2765 3102
54 2010 1981
